(set-option :produce-models true)
(set-logic QF_UF)
(declare-fun p40() Bool)
(declare-fun p116() Bool)
(declare-fun p66() Bool)
(declare-fun p107() Bool)
(declare-fun p98() Bool)
(declare-fun p34() Bool)
(declare-fun p14() Bool)
(declare-fun p75() Bool)
(declare-fun p68() Bool)
(declare-fun p88() Bool)
(declare-fun p73() Bool)
(declare-fun p111() Bool)
(declare-fun p92() Bool)
(declare-fun p113() Bool)
(declare-fun p36() Bool)
(declare-fun p95() Bool)
(declare-fun p90() Bool)
(declare-fun p79() Bool)
(declare-fun p22() Bool)
(declare-fun p20() Bool)
(declare-fun p6() Bool)
(declare-fun p7() Bool)
(declare-fun p72() Bool)
(declare-fun p63() Bool)
(declare-fun p5() Bool)
(declare-fun p9() Bool)
(declare-fun p51() Bool)
(declare-fun p0() Bool)
(declare-fun p67() Bool)
(declare-fun p27() Bool)
(declare-fun p86() Bool)
(declare-fun p11() Bool)
(declare-fun p55() Bool)
(declare-fun p30() Bool)
(declare-fun p16() Bool)
(declare-fun p49() Bool)
(declare-fun p58() Bool)
(declare-fun p94() Bool)
(declare-fun p26() Bool)
(declare-fun p84() Bool)
(declare-fun p71() Bool)
(declare-fun p103() Bool)
(declare-fun p21() Bool)
(declare-fun p118() Bool)
(declare-fun p19() Bool)
(declare-fun p43() Bool)
(declare-fun p100() Bool)
(declare-fun p45() Bool)
(declare-fun p93() Bool)
(declare-fun p35() Bool)
(declare-fun p10() Bool)
(declare-fun p24() Bool)
(declare-fun p47() Bool)
(declare-fun p106() Bool)
(declare-fun p85() Bool)
(declare-fun p80() Bool)
(declare-fun p64() Bool)
(declare-fun p83() Bool)
(declare-fun p15() Bool)
(declare-fun p97() Bool)
(declare-fun p39() Bool)
(declare-fun p17() Bool)
(declare-fun p96() Bool)
(declare-fun p104() Bool)
(declare-fun p2() Bool)
(declare-fun p82() Bool)
(declare-fun p119() Bool)
(declare-fun p53() Bool)
(declare-fun p109() Bool)
(declare-fun p78() Bool)
(declare-fun p46() Bool)
(declare-fun p25() Bool)
(declare-fun p32() Bool)
(declare-fun p101() Bool)
(declare-fun p112() Bool)
(declare-fun p56() Bool)
(declare-fun p89() Bool)
(declare-fun p102() Bool)
(declare-fun p61() Bool)
(declare-fun p76() Bool)
(declare-fun p60() Bool)
(declare-fun p54() Bool)
(declare-fun p62() Bool)
(declare-fun p81() Bool)
(declare-fun p4() Bool)
(declare-fun p23() Bool)
(declare-fun p117() Bool)
(declare-fun p50() Bool)
(declare-fun p28() Bool)
(declare-fun p42() Bool)
(declare-fun p13() Bool)
(declare-fun p99() Bool)
(declare-fun p38() Bool)
(declare-fun p108() Bool)
(declare-fun p69() Bool)
(declare-fun p29() Bool)
(declare-fun p12() Bool)
(declare-fun p115() Bool)
(declare-fun p87() Bool)
(declare-fun p3() Bool)
(declare-fun p77() Bool)
(declare-fun p70() Bool)
(declare-fun p52() Bool)
(declare-fun p105() Bool)
(declare-fun p31() Bool)
(declare-fun p114() Bool)
(declare-fun p57() Bool)
(declare-fun p65() Bool)
(declare-fun p1() Bool)
(declare-fun p91() Bool)
(declare-fun p8() Bool)
(declare-fun p33() Bool)
(declare-fun p74() Bool)
(declare-fun p110() Bool)
(declare-fun p37() Bool)
(declare-fun p18() Bool)
(declare-fun p48() Bool)
(declare-fun p41() Bool)
(declare-fun p44() Bool)
(declare-fun p59() Bool)
(assert
(and (or (not p40) p116 p66) (or (not p107) (not p98) p34) (or p14 p107 p75) (or (not p68) p88 p73) (or p68 (not p111) (not p92)) (or p113 p36 p95) (or (not p90) p79 p22) (or p20 (not p34) (not p6)) (or (not p7) p72 p7) (or (not p34) p63 p5) (or p9 (not p51) (not p0)) (or p67 p27 p116) (or (not p86) p11 p55) (or p14 p30 (not p16)) (or p49 p58 p94) (or (not p68) (not p86) (not p116)) (or (not p55) (not p6) p26) (or (not p84) p71 (not p30)) (or p103 (not p21) (not p118)) (or (not p19) p43 p100) (or p21 p45 p93) (or p113 p71 p22) (or (not p35) (not p10) (not p24)) (or (not p22) p47 (not p106)) (or (not p85) p80 (not p64)) (or (not p83) p64 p106) (or p15 (not p97) p39) (or (not p17) (not p68) p96) (or p79 p104 (not p96)) (or (not p7) p2 p82) (or (not p119) (not p94) (not p82)) (or p53 p119 p109) (or p78 p17 (not p75)) (or (not p100) p46 (not p39)) (or (not p25) p32 p5) (or (not p101) (not p63) p85) (or (not p112) p56 (not p7)) (or (not p49) (not p67) (not p89)) (or p100 (not p56) (not p93)) (or p102 p72 (not p109)) (or p66 p61 (not p76)) (or (not p73) (not p75) p60) (or p54 p62 (not p39)) (or (not p81) (not p4) p22) (or p67 p51 p112) (or (not p89) (not p23) p118) (or (not p39) p117 (not p16)) (or (not p30) p26 p68) (or (not p81) (not p51) p50) (or p28 (not p42) p13) (or (not p99) (not p55) p17) (or p39 (not p38) p82) (or p81 (not p80) p86) (or p4 p93 (not p17)) (or p100 (not p108) (not p66)) (or p79 (not p69) (not p29)) (or (not p0) p93 (not p79)) (or p28 p32 (not p38)) (or (not p13) (not p12) p71) (or (not p23) (not p115) p115) (or p87 (not p98) p51) (or p102 (not p88) (not p51)) (or (not p3) p108 p32) (or p100 p3 (not p71)) (or p115 (not p77) (not p112)) (or (not p70) p90 p52) (or p29 (not p70) p105) (or (not p31) p58 (not p106)) (or p114 (not p101) p69) (or (not p57) p36 (not p72)) (or (not p67) (not p65) (not p65)) (or p1 (not p80) p56) (or (not p91) p105 p52) (or (not p78) (not p91) (not p8)) (or p92 p0 p71) (or p17 (not p12) p100) (or (not p13) p6 (not p43)) (or p111 p117 (not p92)) (or p33 p31 p72) (or (not p84) p74 (not p42)) (or p88 p30 p34) (or p75 p115 p67) (or p102 (not p104) (not p20)) (or (not p25) p84 p97) (or (not p49) p117 (not p87)) (or p20 (not p19) (not p39)) (or p80 (not p100) (not p40)) (or p55 (not p42) p26) (or (not p110) (not p103) p38) (or p40 (not p17) p107) (or p2 p5 p22) (or p37 (not p63) p88) (or (not p106) (not p109) p29) (or (not p109) p1 (not p74)) (or p97 (not p104) (not p95)) (or p5 (not p26) (not p117)) (or (not p83) p62 (not p20)) (or (not p94) (not p43) p13) (or p6 (not p57) p83) (or (not p4) p21 p61) (or p71 p65 p81) (or (not p68) (not p18) (not p65)) (or p19 p39 p71) (or p105 (not p109) p66) (or (not p62) p56 p42) (or (not p91) p9 (not p106)) (or p62 p102 (not p107)) (or p24 (not p23) p4) (or p72 (not p79) (not p60)) (or p35 p35 (not p55)) (or p66 p12 (not p15)) (or p75 (not p3) p115) (or p96 p43 (not p88)) (or (not p63) (not p55) p36) (or (not p117) (not p68) p75) (or (not p85) (not p47) p12) (or p89 p88 p46) (or (not p85) (not p13) p86) (or p107 (not p110) p101) (or (not p67) (not p3) p77) (or p36 (not p74) p50) (or (not p90) p48 p94) (or p105 (not p80) (not p103)) (or p16 (not p68) (not p5)) (or (not p76) (not p20) (not p67)) (or (not p25) (not p88) p45) (or p117 (not p70) p102) (or (not p68) p111 p68) (or p89 (not p70) (not p75)) (or p104 p60 (not p63)) (or (not p41) p68 (not p6)) (or p41 (not p108) (not p11)) (or p98 (not p113) (not p9)) (or p95 (not p42) (not p15)) (or p88 p117 (not p82)) (or (not p2) p44 p40) (or p110 (not p109) p66) (or (not p30) p83 (not p32)) (or p25 (not p4) p97) (or (not p82) (not p81) p17) (or (not p113) p51 (not p38)) (or p9 p86 p51) (or (not p32) (not p8) (not p27)) (or p93 (not p72) (not p35)) (or p28 p70 (not p55)) (or p106 (not p48) p90) (or (not p99) (not p78) p43) (or (not p102) p45 (not p15)) (or (not p93) p84 (not p5)) (or (not p52) p62 p48) (or p57 p55 (not p101)) (or p21 (not p67) (not p97)) (or p14 (not p10) p61) (or p15 p0 p42) (or (not p30) p16 p24) (or (not p75) p62 p117) (or p66 (not p12) (not p33)) (or (not p93) p114 p78) (or p75 (not p24) p111) (or (not p5) p55 p103) (or p3 p43 p65) (or p32 (not p113) (not p54)) (or (not p18) p52 (not p24)) (or (not p105) p35 (not p39)) (or p31 p24 (not p31)) (or p5 p15 p80) (or p30 p55 (not p63)) (or (not p97) (not p104) (not p62)) (or p56 p54 (not p48)) (or (not p73) (not p44) p85) (or p56 p70 p116) (or p114 p61 p111) (or p99 (not p86) p62) (or p118 (not p58) (not p85)) (or p102 (not p80) (not p56)) (or p112 (not p37) (not p6)) (or (not p81) p43 p20) (or p114 p11 (not p19)) (or p101 p83 p62) (or p33 p40 (not p118)) (or p2 (not p21) (not p81)) (or p92 p107 (not p34)) (or p38 (not p50) (not p86)) (or p3 (not p62) (not p59)) (or (not p72) (not p11) (not p14)) (or (not p36) p61 (not p68)) (or (not p6) (not p106) (not p60)) (or p27 p72 (not p61)) (or p47 p24 p58) (or (not p5) (not p99) (not p98)) (or p15 (not p116) p102) (or (not p60) (not p85) p76) (or (not p91) (not p111) p83) (or p26 (not p14) p108) (or p28 (not p77) (not p60)) (or p74 p6 (not p52)) (or (not p50) (not p11) (not p56)) (or (not p42) p94 p15) (or (not p1) (not p42) p1) (or p113 (not p30) (not p63)) (or (not p56) p70 p41) (or (not p57) p88 (not p30)) (or p56 p64 p56) (or p93 (not p113) (not p83)) (or p82 p83 (not p32)) (or p21 p51 (not p103)) (or (not p63) (not p39) p25) (or (not p55) (not p39) p47) (or p59 (not p46) p33) (or p65 p45 p11) (or p23 p71 p10) (or (not p113) p61 (not p38)) (or p35 (not p72) p62) (or (not p89) p103 p40) (or p118 p91 (not p9)) (or (not p112) p33 p7) (or p117 p57 (not p62)) (or p59 p99 (not p102)) (or (not p13) (not p26) (not p31)) (or p92 p96 p15) (or (not p24) (not p101) (not p20)) (or (not p118) (not p14) p53) (or (not p117) (not p109) p88) (or p86 p102 (not p92)) (or p21 (not p8) p11) (or (not p113) (not p119) p96) (or p76 p107 (not p6)) (or p13 p64 p112) (or (not p88) p45 (not p32)) (or (not p107) (not p43) (not p7)) (or (not p61) (not p57) p29) (or p86 (not p9) (not p72)) (or (not p2) (not p25) (not p96)) (or p42 p35 p22) (or (not p117) (not p85) p65) (or (not p95) (not p79) (not p87)) (or p11 (not p14) (not p80)) (or (not p74) (not p100) p22) (or p65 (not p25) p19) (or (not p94) p97 (not p114)) (or (not p62) p115 (not p44)) (or p12 (not p81) p21) (or (not p4) (not p117) p9) (or (not p115) p24 (not p66)) (or (not p52) p81 (not p72)) (or (not p49) (not p48) p22) (or p77 (not p54) p4) (or p104 p39 p48) (or p43 (not p32) (not p59)) (or (not p1) p78 p23) (or (not p6) (not p92) (not p77)) (or p34 p56 p17) (or p103 p70 (not p65)) (or p107 (not p112) p59) (or (not p26) (not p16) (not p88)) (or p93 (not p84) p94) (or (not p31) p25 p96) (or p115 (not p40) p83) (or (not p109) p74 (not p90)) (or p9 (not p15) p79) (or p107 p35 p2) (or (not p59) p2 (not p62)) (or (not p78) (not p112) p87) (or (not p12) (not p29) p84) (or (not p90) p51 p57) (or p32 p33 p58) (or (not p98) (not p106) (not p50)) (or p75 p37 (not p25)) (or (not p33) (not p69) p82) (or p106 (not p98) (not p85)) (or p31 p91 p89) (or p41 (not p24) (not p101)) (or (not p77) p119 p105) (or p103 (not p11) (not p53)) (or (not p112) p75 (not p41)) (or p27 p117 (not p61)) (or (not p98) (not p83) p106) (or (not p61) (not p7) p24) (or p48 (not p104) (not p35)) (or p87 (not p5) (not p107)) (or (not p36) p4 p0) (or p18 (not p42) (not p17)) (or p22 (not p11) p42) (or p112 (not p14) (not p45)) (or p26 (not p104) (not p38)) (or (not p105) p69 p47) (or (not p40) p23 (not p27)) (or p71 (not p70) (not p28)) (or p83 p101 (not p19)) (or (not p74) (not p70) (not p51)) (or (not p4) (not p5) (not p68)) (or (not p112) p61 (not p3)) (or (not p26) (not p32) (not p83)) (or (not p31) (not p102) (not p14)) (or (not p113) (not p19) (not p66)) (or (not p55) p31 (not p0)) (or (not p43) p56 p33) (or p79 p55 p37) (or p35 p27 (not p9)) (or (not p94) (not p61) (not p99)) (or (not p48) (not p65) p113) (or (not p17) (not p56) (not p66)) (or p85 p56 p56) (or p92 p95 p26) (or (not p13) p60 p34) (or p22 (not p31) p104) (or (not p32) (not p67) p44) (or (not p69) p112 p61) (or (not p39) (not p91) (not p1)) (or p43 (not p91) (not p98)) (or (not p89) p100 p33) (or (not p41) (not p118) (not p19)) (or p93 (not p105) (not p89)) (or (not p17) p4 p48) (or p64 (not p21) p65) (or (not p18) p28 p33) (or (not p53) (not p15) p47) (or p59 (not p80) (not p55)) (or p44 p0 (not p85)) (or (not p15) (not p101) p35) (or (not p86) (not p26) p42) (or p92 (not p44) p28) (or (not p20) p49 p0) (or (not p87) p16 p10) (or p94 p89 p71) (or p66 (not p28) p85) (or p112 (not p39) (not p74)) (or (not p115) p42 p96) (or (not p107) (not p60) (not p3)) (or p3 p23 (not p75)) (or p45 (not p12) p33) (or p51 (not p28) p3) (or (not p44) (not p48) (not p18)) (or (not p82) p19 (not p80)) (or p86 p12 p115) (or (not p36) (not p18) (not p77)) (or (not p106) (not p55) (not p77)) (or p21 (not p49) (not p41)) (or (not p72) (not p2) (not p112)) (or (not p76) (not p45) p101) (or p17 p52 p33) (or (not p94) (not p86) (not p48)) (or p117 (not p30) p11) (or p82 (not p14) (not p117)) (or p57 p75 (not p3)) (or p116 (not p102) (not p64)) (or p17 (not p100) (not p0)) (or p30 (not p23) p88) (or (not p106) p110 (not p7)) (or (not p86) (not p62) p38) (or (not p75) (not p94) (not p57)) (or (not p25) (not p0) (not p30)) (or (not p84) p59 p96) (or p99 p118 p112) (or p114 (not p10) p42) (or (not p25) (not p114) (not p14)) (or (not p61) (not p10) (not p98)) (or (not p32) p39 (not p21)) (or p96 p87 (not p92)) (or (not p4) p3 p112) (or p44 p11 p59) (or (not p111) p103 p89) (or (not p12) (not p24) (not p94)) (or p80 (not p46) (not p28)) (or (not p10) p30 (not p49)) (or (not p89) (not p47) (not p18)) (or p24 (not p35) p119) (or p20 p38 p20) (or (not p16) p4 (not p21)) (or p48 (not p46) (not p92)) (or (not p11) (not p36) p47) (or (not p21) p104 (not p74)) (or (not p4) (not p75) p78) (or (not p67) p5 (not p61)) (or (not p48) p67 p100) (or (not p47) p66 p109) (or p69 (not p78) p56) (or p38 (not p22) p110) (or p61 p69 p42) (or (not p30) (not p67) (not p14)) (or p15 p25 (not p108)) (or (not p92) p115 p23) (or p47 p94 p75) (or (not p65) (not p80) p3) (or (not p33) p107 p17) (or p93 p40 p78) (or (not p25) (not p68) (not p38)) (or (not p3) p56 (not p45)) (or p26 p6 p88) (or (not p70) (not p36) (not p75)) (or (not p69) (not p63) (not p4)) (or (not p87) p93 (not p75)) (or (not p82) (not p42) p30) (or (not p81) p10 (not p66)) (or p75 (not p76) (not p52)) (or (not p78) (not p55) (not p59)) (or (not p69) (not p14) (not p90)) (or p66 p47 (not p70)) (or (not p30) p82 (not p79)) (or (not p111) p111 p9) (or (not p115) (not p95) p47) (or p19 (not p88) (not p14)) (or p93 (not p29) (not p111)) (or p11 p52 p30) (or (not p106) p35 p20) (or p21 p27 (not p23)) (or (not p103) (not p46) p105) (or (not p51) p109 (not p119)) (or p38 (not p14) p63) (or (not p10) p87 p78) (or (not p62) p35 (not p99)) (or p7 (not p60) p72) (or (not p47) p29 p96) (or p20 (not p82) p80) (or p13 (not p51) (not p9)) (or (not p60) p35 (not p35)) (or (not p9) p64 (not p26)) (or (not p108) (not p14) (not p71)) (or p110 (not p26) (not p88)) (or (not p113) p102 (not p66)) (or p97 (not p89) (not p20)) (or p95 p103 (not p75)) (or (not p28) (not p75) (not p85)) (or p111 (not p36) (not p30)) (or p91 (not p107) (not p94)) (or (not p108) (not p116) (not p51)) (or p15 (not p108) (not p31)) (or p68 (not p91) p98) (or p97 (not p69) p17) (or p26 p112 (not p86)) (or (not p92) (not p12) (not p104)) (or (not p19) p23 p72) (or (not p110) p69 (not p77)) (or (not p9) p45 (not p2)) (or p67 p16 (not p75)) (or p27 (not p119) (not p103)) (or (not p105) (not p65) p110) (or (not p24) p77 (not p112)) (or p44 (not p11) p22) (or (not p90) p20 (not p46)) (or p62 p63 p73) (or (not p70) p6 (not p67)) (or (not p99) (not p84) p79) (or p76 p46 p56) (or p6 p6 (not p40)) (or p7 p64 (not p51)) (or p2 p113 (not p84)) (or (not p60) (not p36) (not p69)) (or p31 p53 (not p45)) (or p93 (not p92) (not p33)) (or p61 (not p49) p85) (or p94 p48 (not p9)) (or p95 (not p56) p36) (or (not p72) (not p36) (not p33)) (or p71 p80 p83) (or p104 p53 p4) (or (not p41) (not p43) p89) (or p107 p17 p31) (or p67 p36 (not p51)) (or p108 (not p102) (not p87)) (or p99 p110 p25) (or (not p29) (not p62) (not p119)) (or (not p110) (not p37) p13) (or (not p3) (not p116) p103) (or p78 (not p104) (not p61)) (or (not p56) (not p8) p69) (or p57 p50 (not p46)) (or (not p9) (not p75) (not p111)) (or (not p77) (not p8) p41) (or (not p89) p103 p70) (or (not p4) p118 (not p86)) (or p104 (not p90) (not p87)) (or (not p89) (not p85) p76) (or p20 p101 p25) (or p86 (not p26) (not p34)) (or p58 p37 p44) (or (not p65) (not p87) (not p55)) (or p27 p17 p61) (or (not p32) (not p36) (not p66)) (or p39 (not p112) (not p99)) (or (not p80) p86 (not p1)) (or (not p20) p71 (not p88)) (or (not p49) (not p109) (not p95)) (or p111 p2 (not p22)) (or p55 p119 p90) (or p20 p78 p105) (or p51 p9 (not p52)) (or (not p118) (not p99) p107) (or p17 (not p54) (not p51)) (or (not p91) (not p22) p42) (or (not p75) (not p72) (not p36)) (or p107 p108 (not p100)) (or p109 p78 (not p63)) (or (not p117) (not p37) (not p78)) (or (not p16) (not p50) p11) (or (not p12) p98 p7) (or (not p23) (not p69) (not p83)) (or (not p34) (not p109) (not p90)) (or p74 (not p119) (not p38)) (or (not p24) (not p22) (not p12)) (or p112 p61 (not p73)) (or (not p67) (not p21) (not p11)) (or p12 (not p76) (not p29)) (or (not p41) (not p91) p101) (or p21 (not p93) p75) (or (not p2) (not p1) (not p28)) (or p99 (not p98) p41) (or p117 (not p29) p54) (or p107 p44 p27) (or (not p108) p80 (not p114)) (or (not p45) (not p113) p79) (or (not p56) (not p74) (not p34)) (or (not p56) (not p15) p23) (or p37 p33 (not p78)) (or p46 p90 p59) (or p40 (not p56) (not p102)) (or p61 (not p57) (not p10)) (or p8 p114 p70) (or p77 p115 p65) (or (not p85) p59 p116) (or p95 p32 p86) (or (not p1) p21 p57) (or (not p5) (not p19) p14) (or (not p100) (not p65) (not p47)) (or p13 (not p56) (not p55)) (or (not p57) p72 (not p77)) (or (not p78) (not p38) (not p22)) (or (not p0) (not p60) (not p71)) (or p21 p81 p105) (or (not p5) (not p80) p78) (or p99 (not p59) p62) (or p45 (not p34) (not p9)) (or (not p72) (not p75) p50) (or (not p75) (not p10) (not p60)) (or p30 (not p64) (not p104)) (or p57 (not p84) (not p5)) (or (not p68) p57 p2) (or p34 (not p63) p25) (or (not p31) p72 p102) (or (not p8) (not p113) p52) (or (not p64) p18 p22) (or (not p77) (not p26) p14) (or p107 p83 p118) (or p11 (not p47) (not p117)) (or p106 (not p52) (not p93)) (or (not p67) p0 p98) (or p33 p52 (not p37)) (or p101 p78 p83) (or (not p93) (not p67) p26) (or (not p71) (not p27) p110) (or (not p63) p0 (not p64)) (or p98 (not p112) p94) (or p23 p54 (not p0)) (or (not p103) (not p52) p71) (or p34 (not p114) p14) (or (not p21) (not p48) p99) (or p39 (not p1) p20) (or p114 (not p27) (not p9)) (or p108 p45 (not p73)) (or p37 p38 (not p57)) (or p35 p86 p69) (or p75 p78 (not p20)) (or (not p31) p73 p17) (or (not p28) (not p76) (not p34)) (or (not p32) (not p119) p79) (or p92 (not p19) p93) (or (not p7) (not p78) (not p58)) (or p45 p72 p43) (or (not p75) p14 (not p5)) (or p57 (not p82) p28) (or p46 p95 (not p102)) (or p24 (not p63) (not p97)) (or (not p29) (not p5) (not p93)) (or p74 p58 p101) (or p0 (not p22) (not p92)) (or (not p108) (not p106) (not p49)) (or p116 (not p0) p54) (or p52 p7 p5) (or (not p14) (not p110) (not p26)) (or (not p49) (not p87) p59) (or (not p100) (not p8) p20) (or (not p85) p30 (not p68)) (or (not p31) (not p94) (not p53)) (or p79 (not p31) p115) (or p36 p114 p60) (or (not p10) (not p78) (not p9)) (or p105 (not p33) p102) (or (not p63) (not p87) (not p60)) (or p69 p69 (not p76)) (or (not p94) (not p20) p62) (or p94 (not p27) p80) (or p69 (not p93) (not p58)) (or (not p15) p50 (not p50)) (or (not p73) (not p97) (not p56)) (or (not p27) (not p110) (not p93)) (or (not p80) p56 p4) (or (not p44) p108 (not p21)) (or (not p2) (not p11) (not p2)) (or (not p84) (not p115) p104))
)
(check-sat)
(get-model)
